BAYES
324
2 2 2 2 2 2 2 2 2 2 2 2 2 2 2 2 2 2 2 2 2 2 2 2 2 2 2 2 2 2 2 2 2 2 2 2 2 2 2 2 2 2 2 2 2 2 2 2 2 2 2 2 2 2 2 2 2 2 2 2 2 2 2 2 2 2 2 2 2 2 2 2 2 2 2 2 2 2 2 2 2 2 2 2 2 2 2 2 2 2 2 2 2 2 2 2 2 2 2 2 2 2 2 2 2 2 2 2 2 2 2 2 2 2 2 2 2 2 2 2 2 2 2 2 2 2 2 2 2 2 2 2 2 2 2 2 2 2 2 2 2 2 2 2 2 2 2 2 2 2 2 2 2 2 2 2 2 2 2 2 2 2 2 2 2 2 2 2 2 2 2 2 2 2 2 2 2 2 2 2 2 2 2 2 2 2 2 2 2 2 2 2 2 2 2 2 2 2 2 2 2 2 2 2 2 2 2 2 2 2 2 2 2 2 2 2 2 2 2 2 2 2 2 2 2 2 2 2 2 2 2 2 2 2 2 2 2 2 2 2 2 2 2 2 2 2 2 2 2 2 2 2 2 2 2 2 2 2 2 2 2 2 2 2 2 2 2 2 2 2 2 2 2 2 2 2 2 2 2 2 2 2 2 2 2 2 2 2 2 2 2 2 2 2 2 2 2 2 2 2 2 2 2 2 2 2 2 2 2 2 2 2 2 2 2 2 2 2 2 2 2 2 2 2
324
3 1 18 0
3 2 19 1
3 3 20 2
3 4 21 3
3 5 22 4
3 6 23 5
3 7 24 6
3 8 25 7
3 9 26 8
3 10 27 9
3 11 28 10
3 12 29 11
3 13 30 12
3 14 31 13
3 15 32 14
3 16 33 15
3 17 34 16
2 18 17
3 19 36 18
3 20 37 19
3 21 38 20
3 22 39 21
3 23 40 22
3 24 41 23
3 25 42 24
3 26 43 25
3 27 44 26
3 28 45 27
3 29 46 28
3 30 47 29
3 31 48 30
3 32 49 31
3 33 50 32
3 34 51 33
3 35 52 34
2 36 35
3 37 54 36
3 38 55 37
3 39 56 38
3 40 57 39
3 41 58 40
3 42 59 41
3 43 60 42
3 44 61 43
3 45 62 44
3 46 63 45
3 47 64 46
3 48 65 47
3 49 66 48
3 50 67 49
3 51 68 50
3 52 69 51
3 53 70 52
2 54 53
3 55 72 54
3 56 73 55
3 57 74 56
3 58 75 57
3 59 76 58
3 60 77 59
3 61 78 60
3 62 79 61
3 63 80 62
3 64 81 63
3 65 82 64
3 66 83 65
3 67 84 66
3 68 85 67
3 69 86 68
3 70 87 69
3 71 88 70
2 72 71
3 73 90 72
3 74 91 73
3 75 92 74
3 76 93 75
3 77 94 76
3 78 95 77
3 79 96 78
3 80 97 79
3 81 98 80
3 82 99 81
3 83 100 82
3 84 101 83
3 85 102 84
3 86 103 85
3 87 104 86
3 88 105 87
3 89 106 88
2 90 89
3 91 108 90
3 92 109 91
3 93 110 92
3 94 111 93
3 95 112 94
3 96 113 95
3 97 114 96
3 98 115 97
3 99 116 98
3 100 117 99
3 101 118 100
3 102 119 101
3 103 120 102
3 104 121 103
3 105 122 104
3 106 123 105
3 107 124 106
2 108 107
3 109 126 108
3 110 127 109
3 111 128 110
3 112 129 111
3 113 130 112
3 114 131 113
3 115 132 114
3 116 133 115
3 117 134 116
3 118 135 117
3 119 136 118
3 120 137 119
3 121 138 120
3 122 139 121
3 123 140 122
3 124 141 123
3 125 142 124
2 126 125
3 127 144 126
3 128 145 127
3 129 146 128
3 130 147 129
3 131 148 130
3 132 149 131
3 133 150 132
3 134 151 133
3 135 152 134
3 136 153 135
3 137 154 136
3 138 155 137
3 139 156 138
3 140 157 139
3 141 158 140
3 142 159 141
3 143 160 142
2 144 143
3 145 162 144
3 146 163 145
3 147 164 146
3 148 165 147
3 149 166 148
3 150 167 149
3 151 168 150
3 152 169 151
3 153 170 152
3 154 171 153
3 155 172 154
3 156 173 155
3 157 174 156
3 158 175 157
3 159 176 158
3 160 177 159
3 161 178 160
2 162 161
3 163 180 162
3 164 181 163
3 165 182 164
3 166 183 165
3 167 184 166
3 168 185 167
3 169 186 168
3 170 187 169
3 171 188 170
3 172 189 171
3 173 190 172
3 174 191 173
3 175 192 174
3 176 193 175
3 177 194 176
3 178 195 177
3 179 196 178
2 180 179
3 181 198 180
3 182 199 181
3 183 200 182
3 184 201 183
3 185 202 184
3 186 203 185
3 187 204 186
3 188 205 187
3 189 206 188
3 190 207 189
3 191 208 190
3 192 209 191
3 193 210 192
3 194 211 193
3 195 212 194
3 196 213 195
3 197 214 196
2 198 197
3 199 216 198
3 200 217 199
3 201 218 200
3 202 219 201
3 203 220 202
3 204 221 203
3 205 222 204
3 206 223 205
3 207 224 206
3 208 225 207
3 209 226 208
3 210 227 209
3 211 228 210
3 212 229 211
3 213 230 212
3 214 231 213
3 215 232 214
2 216 215
3 217 234 216
3 218 235 217
3 219 236 218
3 220 237 219
3 221 238 220
3 222 239 221
3 223 240 222
3 224 241 223
3 225 242 224
3 226 243 225
3 227 244 226
3 228 245 227
3 229 246 228
3 230 247 229
3 231 248 230
3 232 249 231
3 233 250 232
2 234 233
3 235 252 234
3 236 253 235
3 237 254 236
3 238 255 237
3 239 256 238
3 240 257 239
3 241 258 240
3 242 259 241
3 243 260 242
3 244 261 243
3 245 262 244
3 246 263 245
3 247 264 246
3 248 265 247
3 249 266 248
3 250 267 249
3 251 268 250
2 252 251
3 253 270 252
3 254 271 253
3 255 272 254
3 256 273 255
3 257 274 256
3 258 275 257
3 259 276 258
3 260 277 259
3 261 278 260
3 262 279 261
3 263 280 262
3 264 281 263
3 265 282 264
3 266 283 265
3 267 284 266
3 268 285 267
3 269 286 268
2 270 269
3 271 288 270
3 272 289 271
3 273 290 272
3 274 291 273
3 275 292 274
3 276 293 275
3 277 294 276
3 278 295 277
3 279 296 278
3 280 297 279
3 281 298 280
3 282 299 281
3 283 300 282
3 284 301 283
3 285 302 284
3 286 303 285
3 287 304 286
2 288 287
3 289 306 288
3 290 307 289
3 291 308 290
3 292 309 291
3 293 310 292
3 294 311 293
3 295 312 294
3 296 313 295
3 297 314 296
3 298 315 297
3 299 316 298
3 300 317 299
3 301 318 300
3 302 319 301
3 303 320 302
3 304 321 303
3 305 322 304
2 306 305
2 324 306
2 325 307
2 326 308
2 327 309
2 328 310
2 329 311
2 330 312
2 331 313
2 332 314
2 333 315
2 334 316
2 335 317
2 336 318
2 337 319
2 338 320
2 339 321
2 340 322
1  323
8
0 1 1 0 0 1 1 0
8
0.25886915153731826 0.7411308484626817 0.24269617332138724 0.7573038266786127 0.5367905913474214 0.46320940865257865 0.6009235159061223 0.39907648409387775
8
1 0 0 1 1 0 1 0
8
0 1 1 0 1 0 1 0
8
1 0 1 0 0 1 0 1
8
1 0 1 0 0 1 0 1
8
1 0 1 0 0 1 0 1
8
0.8432426147697166 0.15675738523028335 0.025711357251211913 0.9742886427487881 0.6324335014571629 0.367566498542837 0.7702470045572917 0.22975299544270836
8
1 0 1 0 1 0 1 0
8
1 0 0 1 1 0 1 0
8
0.25190340932299604 0.7480965906770038 0.5371399854192275 0.4628600145807725 0.6248383068600623 0.3751616931399377 0.6532722308180412 0.34672776918195886
8
0 1 1 0 1 0 0 1
8
0.9986099784226437 0.0013900215773562997 0.6512868792084594 0.34871312079154054 0.6941534293792672 0.3058465706207329 0.5545966674754421 0.4454033325245578
8
1 0 1 0 0 1 1 0
8
1 0 0 1 0 1 1 0
8
0 1 0 1 1 0 1 0
8
0 1 1 0 1 0 0 1
4
0 1 0 1
8
1 0 1 0 1 0 1 0
8
0 1 1 0 0 1 0 1
8
0 1 1 0 0 1 1 0
8
1 0 1 0 0 1 1 0
8
1 0 0 1 0 1 0 1
8
0 1 1 0 0 1 0 1
8
1 0 0 1 0 1 1 0
8
0 1 0 1 1 0 1 0
8
0 1 1 0 0 1 1 0
8
0 1 0 1 0 1 0 1
8
0 1 1 0 0 1 1 0
8
0 1 0 1 1 0 1 0
8
1 0 1 0 1 0 1 0
8
1 0 0 1 1 0 0 1
8
1 0 0 1 0 1 1 0
8
1 0 1 0 0 1 1 0
8
1 0 1 0 1 0 1 0
4
1 0 0 1
8
0.32833127275015284 0.671668727249847 0.7750388997448261 0.22496110025517385 0.6096953733001268 0.39030462669987326 0.389961377788356 0.610038622211644
8
1 0 0 1 0 1 1 0
8
0.23673909939738347 0.7632609006026165 0.45355265246064363 0.5464473475393563 0.4410130013381166 0.5589869986618834 0.5194663916414111 0.48053360835858894
8
0 1 0 1 0 1 1 0
8
1 0 0 1 1 0 1 0
8
1 0 1 0 0 1 1 0
8
1 0 0 1 1 0 0 1
8
0 1 1 0 1 0 1 0
8
1 0 0 1 1 0 1 0
8
0 1 1 0 0 1 1 0
8
0 1 1 0 0 1 1 0
8
1 0 1 0 1 0 1 0
8
1 0 1 0 0 1 0 1
8
0 1 1 0 1 0 0 1
8
0 1 0 1 1 0 0 1
8
1 0 1 0 1 0 1 0
8
1 0 0 1 1 0 0 1
4
1 0 0 1
8
0 1 1 0 0 1 0 1
8
1 0 0 1 0 1 1 0
8
1 0 1 0 0 1 1 0
8
1 0 0 1 1 0 0 1
8
1 0 0 1 0 1 0 1
8
0 1 1 0 0 1 0 1
8
0 1 0 1 0 1 1 0
8
0.6758889323381483 0.32411106766185155 0.5076612523814381 0.4923387476185619 0.4481457439150821 0.5518542560849179 0.3192790820702874 0.6807209179297127
8
0 1 0 1 0 1 1 0
8
1 0 0 1 1 0 0 1
8
0 1 1 0 1 0 0 1
8
1 0 1 0 0 1 1 0
8
1 0 1 0 0 1 0 1
8
0.45511088246623604 0.544889117533764 0.498453505561339 0.5015464944386611 0.4812463429670979 0.5187536570329021 0.938126798055201 0.06187320194479899
8
0 1 0 1 1 0 1 0
8
0 1 0 1 0 1 1 0
8
1 0 1 0 0 1 1 0
4
1 0 1 0
8
0 1 0 1 1 0 0 1
8
0 1 0 1 0 1 1 0
8
1 0 1 0 1 0 1 0
8
1 0 0 1 0 1 0 1
8
0 1 1 0 0 1 0 1
8
1 0 1 0 0 1 1 0
8
0 1 1 0 0 1 1 0
8
0 1 0 1 1 0 1 0
8
0 1 0 1 1 0 1 0
8
1 0 1 0 0 1 0 1
8
0.6080884580088435 0.3919115419911565 0.6459717028680159 0.3540282971319841 0.36448427579829684 0.6355157242017031 0.49620591921149265 0.5037940807885074
8
0 1 0 1 0 1 1 0
8
0 1 0 1 1 0 1 0
8
1 0 1 0 1 0 0 1
8
0 1 1 0 0 1 1 0
8
1 0 0 1 1 0 0 1
8
1 0 0 1 1 0 0 1
4
1 0 0 1
8
0.7366431441192011 0.2633568558807989 0.11036223940726031 0.8896377605927397 0.6749000310244669 0.32509996897553317 0.4000859804927082 0.5999140195072918
8
0 1 0 1 1 0 1 0
8
0 1 0 1 0 1 1 0
8
0 1 1 0 0 1 1 0
8
0.6354067544820187 0.36459324551798133 0.18712584858903852 0.8128741514109614 0.42848990864344927 0.5715100913565507 0.6341241936322375 0.3658758063677625
8
1 0 0 1 1 0 0 1
8
1 0 0 1 1 0 1 0
8
1 0 1 0 1 0 0 1
8
0 1 0 1 1 0 1 0
8
0.19314542262071285 0.8068545773792871 0.5030033547835224 0.4969966452164775 0.7694081965489175 0.2305918034510824 0.3159602360410791 0.684039763958921
8
0 1 0 1 0 1 0 1
8
0 1 1 0 1 0 1 0
8
0 1 1 0 0 1 0 1
8
0 1 1 0 1 0 0 1
8
0 1 1 0 0 1 1 0
8
0.6175588210325993 0.38244117896740076 0.47220986707732276 0.5277901329226772 0.6960065824614272 0.3039934175385728 0.4424856727114712 0.5575143272885288
8
0 1 1 0 1 0 1 0
4
0 1 1 0
8
1 0 0 1 1 0 0 1
8
1 0 0 1 1 0 0 1
8
1 0 0 1 0 1 0 1
8
0.721326156025195 0.27867384397480505 0.18281525061699327 0.8171847493830067 0.5011747351189969 0.4988252648810032 0.9037152251517077 0.09628477484829236
8
1 0 0 1 0 1 1 0
8
0 1 0 1 0 1 0 1
8
0 1 1 0 0 1 1 0
8
1 0 0 1 0 1 0 1
8
0 1 1 0 0 1 1 0
8
0 1 1 0 1 0 1 0
8
0 1 0 1 0 1 1 0
8
0 1 0 1 0 1 1 0
8
0 1 1 0 1 0 0 1
8
0.5290585832492546 0.47094141675074547 0.5149632737053941 0.4850367262946058 0.3405823872738658 0.6594176127261342 0.9519157703865111 0.0480842296134889
8
0 1 1 0 0 1 0 1
8
0 1 0 1 0 1 0 1
8
1 0 1 0 1 0 1 0
4
1 0 1 0
8
1 0 1 0 1 0 1 0
8
1 0 0 1 1 0 0 1
8
0 1 1 0 0 1 0 1
8
0 1 1 0 0 1 1 0
8
0.492126106301932 0.507873893698068 0.7496254486030769 0.25037455139692305 0.48567335341595946 0.5143266465840406 0.372775709529764 0.6272242904702359
8
0 1 1 0 1 0 1 0
8
1 0 1 0 1 0 1 0
8
1 0 0 1 1 0 0 1
8
0 1 0 1 0 1 0 1
8
0 1 0 1 0 1 1 0
8
1 0 0 1 1 0 1 0
8
0 1 1 0 0 1 1 0
8
0 1 0 1 0 1 0 1
8
0.9483173158302189 0.05168268416978101 0.8945247312172493 0.1054752687827507 0.407109214837531 0.592890785162469 0.6855751704931924 0.3144248295068077
8
0 1 0 1 1 0 0 1
8
0 1 0 1 0 1 0 1
8
1 0 1 0 1 0 0 1
4
0.7841997770407357 0.2158002229592642 0.7654107374048214 0.23458926259517865
8
0 1 1 0 1 0 1 0
8
1 0 0 1 1 0 1 0
8
1 0 0 1 0 1 0 1
8
1 0 0 1 1 0 1 0
8
1 0 0 1 1 0 1 0
8
0 1 0 1 1 0 1 0
8
0 1 1 0 1 0 0 1
8
1 0 0 1 0 1 1 0
8
1 0 0 1 1 0 0 1
8
0 1 1 0 0 1 0 1
8
1 0 0 1 0 1 0 1
8
0 1 0 1 1 0 1 0
8
0 1 1 0 1 0 1 0
8
1 0 1 0 0 1 1 0
8
1 0 0 1 0 1 1 0
8
0 1 1 0 0 1 0 1
8
0 1 1 0 1 0 0 1
4
0 1 1 0
8
0 1 1 0 1 0 1 0
8
1 0 1 0 1 0 0 1
8
0 1 0 1 0 1 0 1
8
0 1 0 1 0 1 1 0
8
0 1 0 1 1 0 1 0
8
1 0 1 0 0 1 1 0
8
1 0 1 0 1 0 1 0
8
0 1 0 1 0 1 0 1
8
0 1 0 1 1 0 1 0
8
1 0 0 1 1 0 0 1
8
0 1 0 1 0 1 1 0
8
0 1 0 1 0 1 0 1
8
1 0 1 0 1 0 0 1
8
0 1 1 0 0 1 0 1
8
0 1 1 0 0 1 1 0
8
0 1 1 0 0 1 0 1
8
1 0 1 0 1 0 1 0
4
0 1 0 1
8
0 1 0 1 1 0 0 1
8
1 0 1 0 0 1 0 1
8
1 0 1 0 1 0 0 1
8
1 0 1 0 0 1 1 0
8
0 1 0 1 0 1 1 0
8
0 1 1 0 0 1 1 0
8
0 1 0 1 1 0 1 0
8
1 0 0 1 1 0 1 0
8
1 0 1 0 1 0 1 0
8
0 1 0 1 1 0 1 0
8
0 1 0 1 1 0 1 0
8
0 1 0 1 1 0 1 0
8
1 0 1 0 1 0 1 0
8
0.43775911315608684 0.5622408868439132 0.21136667493208597 0.7886333250679142 0.6175858542875008 0.3824141457124992 0.5031156470700938 0.4968843529299061
8
1 0 0 1 0 1 0 1
8
0 1 1 0 1 0 1 0
8
0 1 1 0 0 1 0 1
4
1 0 1 0
8
1 0 0 1 1 0 1 0
8
1 0 0 1 0 1 0 1
8
0 1 1 0 0 1 0 1
8
1 0 1 0 1 0 0 1
8
0 1 1 0 1 0 1 0
8
0 1 0 1 1 0 1 0
8
0 1 0 1 1 0 1 0
8
1 0 1 0 1 0 1 0
8
1 0 1 0 0 1 0 1
8
0 1 1 0 1 0 1 0
8
0 1 0 1 1 0 1 0
8
1 0 0 1 0 1 0 1
8
1 0 0 1 0 1 1 0
8
0 1 1 0 1 0 0 1
8
1 0 0 1 1 0 0 1
8
0 1 0 1 0 1 1 0
8
1 0 1 0 0 1 0 1
4
0 1 0 1
8
1 0 0 1 1 0 1 0
8
0 1 0 1 1 0 1 0
8
1 0 1 0 1 0 1 0
8
0.6141419108866852 0.3858580891133149 0.8427227754975753 0.15727722450242462 0.6305030432080724 0.3694969567919275 0.34898602010196733 0.6510139798980327
8
1 0 1 0 1 0 1 0
8
1 0 1 0 1 0 0 1
8
1 0 1 0 0 1 0 1
8
0.40664625842047714 0.5933537415795229 0.6845586402854312 0.31544135971456866 0.5088047161571752 0.4911952838428249 0.2187154643393777 0.7812845356606223
8
1 0 1 0 0 1 1 0
8
0 1 1 0 0 1 1 0
8
1 0 0 1 1 0 0 1
8
0 1 0 1 0 1 0 1
8
1 0 0 1 1 0 0 1
8
1 0 0 1 0 1 0 1
8
0 1 1 0 0 1 0 1
8
1 0 1 0 0 1 0 1
8
0.48041987882965803 0.5195801211703419 0.37587015394679185 0.6241298460532081 0.5336435954280165 0.46635640457198346 0.04157682050980732 0.9584231794901927
4
0 1 0 1
8
1 0 1 0 1 0 0 1
8
1 0 0 1 1 0 1 0
8
1 0 1 0 1 0 0 1
8
1 0 0 1 0 1 1 0
8
0 1 1 0 1 0 0 1
8
1 0 0 1 1 0 1 0
8
0 1 1 0 1 0 0 1
8
0.014244276624908897 0.9857557233750911 0.5288288578564578 0.4711711421435422 0.23434331684845366 0.7656566831515463 0.5017102570962039 0.49828974290379613
8
0 1 0 1 0 1 1 0
8
0 1 1 0 0 1 1 0
8
1 0 0 1 0 1 1 0
8
1 0 1 0 0 1 0 1
8
0 1 1 0 0 1 0 1
8
1 0 0 1 0 1 0 1
8
0 1 0 1 1 0 1 0
8
0 1 1 0 1 0 1 0
8
0 1 0 1 1 0 1 0
4
0 1 0 1
8
0 1 0 1 1 0 0 1
8
1 0 0 1 1 0 0 1
8
1 0 1 0 1 0 0 1
8
1 0 0 1 0 1 1 0
8
0 1 1 0 1 0 1 0
8
0.7927206373208718 0.2072793626791282 0.5385729940214083 0.4614270059785916 0.016777339361552134 0.9832226606384479 0.11245228763524942 0.8875477123647507
8
0 1 1 0 0 1 0 1
8
1 0 0 1 1 0 1 0
8
0 1 1 0 1 0 0 1
8
0 1 0 1 0 1 0 1
8
0 1 1 0 1 0 1 0
8
1 0 1 0 1 0 0 1
8
0 1 0 1 0 1 1 0
8
0.05336861886363489 0.9466313811363651 0.521511946435487 0.478488053564513 0.9084760300133198 0.09152396998668026 0.302304130254631 0.697695869745369
8
0 1 0 1 0 1 0 1
8
0 1 0 1 1 0 0 1
8
1 0 0 1 0 1 0 1
4
0 1 1 0
8
1 0 1 0 1 0 0 1
8
0 1 0 1 1 0 0 1
8
0 1 1 0 1 0 0 1
8
1 0 0 1 0 1 1 0
8
1 0 1 0 1 0 0 1
8
0.8093784752848469 0.19062152471515312 0.8324502187438786 0.1675497812561214 0.30758850976621627 0.6924114902337837 0.8967689966919515 0.10323100330804845
8
1 0 0 1 1 0 0 1
8
1 0 0 1 1 0 0 1
8
0 1 0 1 1 0 1 0
8
0 1 0 1 0 1 1 0
8
1 0 1 0 0 1 1 0
8
0 1 0 1 1 0 1 0
8
0 1 0 1 1 0 0 1
8
0 1 0 1 1 0 1 0
8
1 0 0 1 1 0 1 0
8
0.8030340627147432 0.1969659372852568 0.1628360523347306 0.8371639476652695 0.7700488320087546 0.22995116799124532 0.5678539129204275 0.4321460870795725
8
1 0 0 1 0 1 1 0
4
1 0 0 1
8
0.40241965155686754 0.5975803484431323 0.5074618556736749 0.4925381443263251 0.61990121318263 0.38009878681736997 0.5969453383805103 0.4030546616194897
8
0 1 1 0 0 1 0 1
8
1 0 0 1 0 1 0 1
8
1 0 0 1 0 1 1 0
8
0.5041953136150631 0.49580468638493685 0.7969649056477497 0.20303509435225023 0.37916341375053814 0.6208365862494619 0.46012375403296213 0.5398762459670379
8
0 1 1 0 0 1 0 1
8
1 0 1 0 1 0 1 0
8
1 0 1 0 1 0 1 0
8
0.7761316333645044 0.22386836663549556 0.5888441089664548 0.4111558910335453 0.6808707694411675 0.31912923055883247 0.567124338741574 0.43287566125842597
8
0 1 1 0 0 1 0 1
8
0 1 1 0 1 0 0 1
8
0 1 0 1 1 0 0 1
8
0 1 1 0 1 0 0 1
8
0 1 0 1 1 0 1 0
8
1 0 1 0 1 0 1 0
8
0 1 1 0 0 1 1 0
8
1 0 1 0 1 0 0 1
4
0 1 0 1
4
0 1 1 0
4
0.2282254439961067 0.7717745560038933 0.44646279815572426 0.5535372018442757
4
0 1 1 0
4
0 1 1 0
4
1 0 0 1
4
0 1 0 1
4
0.72150558923985 0.27849441076015 0.5512018897493391 0.44879811025066085
4
0.4894793924207804 0.5105206075792196 0.39439211479752617 0.6056078852024739
4
1 0 1 0
4
0 1 1 0
4
0 1 1 0
4
0 1 1 0
4
0 1 1 0
4
1 0 0 1
4
0 1 1 0
4
0 1 1 0
4
1 0 1 0
2
0 1
